p cnf 1060 3120
c inputs: 1 2 3 4 5 6 7 8 9 10 11 12 13 14 15 16 17 18 19 20
c variables for gates: 21 ... 1040
c outputs: 1041 1042 1043 1044 1045 1046 1047 1048 1049 1050 1051 1052 1053 1054 1055 1056 1057 1058 1059 1060
c random input: 1 2 -3 -4 -5 6 -7 8 9 10 -11 -12 13 14 15 16 17 18 19 -20
21 -1 -11 0
-21 1 0
-21 11 0
22 -2 -11 0
-22 2 0
-22 11 0
23 -3 -11 0
-23 3 0
-23 11 0
24 -4 -11 0
-24 4 0
-24 11 0
25 -5 -11 0
-25 5 0
-25 11 0
26 -6 -11 0
-26 6 0
-26 11 0
27 -7 -11 0
-27 7 0
-27 11 0
28 -8 -11 0
-28 8 0
-28 11 0
29 -9 -11 0
-29 9 0
-29 11 0
30 -10 -11 0
-30 10 0
-30 11 0
31 -1 -12 0
-31 1 0
-31 12 0
32 -2 -12 0
-32 2 0
-32 12 0
33 -3 -12 0
-33 3 0
-33 12 0
34 -4 -12 0
-34 4 0
-34 12 0
35 -5 -12 0
-35 5 0
-35 12 0
36 -6 -12 0
-36 6 0
-36 12 0
37 -7 -12 0
-37 7 0
-37 12 0
38 -8 -12 0
-38 8 0
-38 12 0
39 -9 -12 0
-39 9 0
-39 12 0
40 -10 -12 0
-40 10 0
-40 12 0
41 -1 -13 0
-41 1 0
-41 13 0
42 -2 -13 0
-42 2 0
-42 13 0
43 -3 -13 0
-43 3 0
-43 13 0
44 -4 -13 0
-44 4 0
-44 13 0
45 -5 -13 0
-45 5 0
-45 13 0
46 -6 -13 0
-46 6 0
-46 13 0
47 -7 -13 0
-47 7 0
-47 13 0
48 -8 -13 0
-48 8 0
-48 13 0
49 -9 -13 0
-49 9 0
-49 13 0
50 -10 -13 0
-50 10 0
-50 13 0
51 -1 -14 0
-51 1 0
-51 14 0
52 -2 -14 0
-52 2 0
-52 14 0
53 -3 -14 0
-53 3 0
-53 14 0
54 -4 -14 0
-54 4 0
-54 14 0
55 -5 -14 0
-55 5 0
-55 14 0
56 -6 -14 0
-56 6 0
-56 14 0
57 -7 -14 0
-57 7 0
-57 14 0
58 -8 -14 0
-58 8 0
-58 14 0
59 -9 -14 0
-59 9 0
-59 14 0
60 -10 -14 0
-60 10 0
-60 14 0
61 -1 -15 0
-61 1 0
-61 15 0
62 -2 -15 0
-62 2 0
-62 15 0
63 -3 -15 0
-63 3 0
-63 15 0
64 -4 -15 0
-64 4 0
-64 15 0
65 -5 -15 0
-65 5 0
-65 15 0
66 -6 -15 0
-66 6 0
-66 15 0
67 -7 -15 0
-67 7 0
-67 15 0
68 -8 -15 0
-68 8 0
-68 15 0
69 -9 -15 0
-69 9 0
-69 15 0
70 -10 -15 0
-70 10 0
-70 15 0
71 -1 -16 0
-71 1 0
-71 16 0
72 -2 -16 0
-72 2 0
-72 16 0
73 -3 -16 0
-73 3 0
-73 16 0
74 -4 -16 0
-74 4 0
-74 16 0
75 -5 -16 0
-75 5 0
-75 16 0
76 -6 -16 0
-76 6 0
-76 16 0
77 -7 -16 0
-77 7 0
-77 16 0
78 -8 -16 0
-78 8 0
-78 16 0
79 -9 -16 0
-79 9 0
-79 16 0
80 -10 -16 0
-80 10 0
-80 16 0
81 -1 -17 0
-81 1 0
-81 17 0
82 -2 -17 0
-82 2 0
-82 17 0
83 -3 -17 0
-83 3 0
-83 17 0
84 -4 -17 0
-84 4 0
-84 17 0
85 -5 -17 0
-85 5 0
-85 17 0
86 -6 -17 0
-86 6 0
-86 17 0
87 -7 -17 0
-87 7 0
-87 17 0
88 -8 -17 0
-88 8 0
-88 17 0
89 -9 -17 0
-89 9 0
-89 17 0
90 -10 -17 0
-90 10 0
-90 17 0
91 -1 -18 0
-91 1 0
-91 18 0
92 -2 -18 0
-92 2 0
-92 18 0
93 -3 -18 0
-93 3 0
-93 18 0
94 -4 -18 0
-94 4 0
-94 18 0
95 -5 -18 0
-95 5 0
-95 18 0
96 -6 -18 0
-96 6 0
-96 18 0
97 -7 -18 0
-97 7 0
-97 18 0
98 -8 -18 0
-98 8 0
-98 18 0
99 -9 -18 0
-99 9 0
-99 18 0
100 -10 -18 0
-100 10 0
-100 18 0
101 -1 -19 0
-101 1 0
-101 19 0
102 -2 -19 0
-102 2 0
-102 19 0
103 -3 -19 0
-103 3 0
-103 19 0
104 -4 -19 0
-104 4 0
-104 19 0
105 -5 -19 0
-105 5 0
-105 19 0
106 -6 -19 0
-106 6 0
-106 19 0
107 -7 -19 0
-107 7 0
-107 19 0
108 -8 -19 0
-108 8 0
-108 19 0
109 -9 -19 0
-109 9 0
-109 19 0
110 -10 -19 0
-110 10 0
-110 19 0
111 -1 -20 0
-111 1 0
-111 20 0
112 -2 -20 0
-112 2 0
-112 20 0
113 -3 -20 0
-113 3 0
-113 20 0
114 -4 -20 0
-114 4 0
-114 20 0
115 -5 -20 0
-115 5 0
-115 20 0
116 -6 -20 0
-116 6 0
-116 20 0
117 -7 -20 0
-117 7 0
-117 20 0
118 -8 -20 0
-118 8 0
-118 20 0
119 -9 -20 0
-119 9 0
-119 20 0
120 -10 -20 0
-120 10 0
-120 20 0
121 -102 -111 0
-121 102 0
-121 111 0
122 -111 102 0
-122 111 0
-122 -102 0
123 -102 111 0
-123 102 0
-123 -111 0
124 122 123 0
-124 -122 0
-124 -123 0
125 -112 -121 0
-125 112 0
-125 121 0
126 112 -121 0
-126 -112 0
-126 121 0
127 -112 121 0
-127 112 0
-127 -121 0
128 126 127 0
-128 -126 0
-128 -127 0
129 -72 -81 0
-129 72 0
-129 81 0
130 -81 72 0
-130 81 0
-130 -72 0
131 -72 81 0
-131 72 0
-131 -81 0
132 130 131 0
-132 -130 0
-132 -131 0
133 -91 -129 0
-133 91 0
-133 129 0
134 -82 -129 0
-134 82 0
-134 129 0
135 -82 -91 0
-135 82 0
-135 91 0
136 135 134 0
-136 -135 0
-136 -134 0
137 133 -136 0
-137 -133 0
-137 136 0
138 -91 82 0
-138 91 0
-138 -82 0
139 -82 91 0
-139 82 0
-139 -91 0
140 138 139 0
-140 -138 0
-140 -139 0
141 -129 -140 0
-141 129 0
-141 140 0
142 129 140 0
-142 -129 0
-142 -140 0
143 142 141 0
-143 -142 0
-143 -141 0
144 -73 143 0
-144 73 0
-144 -143 0
145 73 143 0
-145 -73 0
-145 -143 0
146 -73 -143 0
-146 73 0
-146 143 0
147 145 146 0
-147 -145 0
-147 -146 0
148 137 -144 0
-148 -137 0
-148 144 0
149 -101 -144 0
-149 101 0
-149 144 0
150 -101 137 0
-150 101 0
-150 -137 0
151 150 149 0
-151 -150 0
-151 -149 0
152 148 -151 0
-152 -148 0
-152 151 0
153 101 137 0
-153 -101 0
-153 -137 0
154 -101 -137 0
-154 101 0
-154 137 0
155 153 154 0
-155 -153 0
-155 -154 0
156 -144 -155 0
-156 144 0
-156 155 0
157 144 155 0
-157 -144 0
-157 -155 0
158 157 156 0
-158 -157 0
-158 -156 0
159 -92 158 0
-159 92 0
-159 -158 0
160 -83 158 0
-160 83 0
-160 -158 0
161 -92 -83 0
-161 92 0
-161 83 0
162 161 160 0
-162 -161 0
-162 -160 0
163 159 -162 0
-163 -159 0
-163 162 0
164 -92 83 0
-164 92 0
-164 -83 0
165 -83 92 0
-165 83 0
-165 -92 0
166 165 164 0
-166 -165 0
-166 -164 0
167 -166 158 0
-167 166 0
-167 -158 0
168 166 -158 0
-168 -166 0
-168 158 0
169 168 167 0
-169 -168 0
-169 -167 0
170 -74 169 0
-170 74 0
-170 -169 0
171 74 169 0
-171 -74 0
-171 -169 0
172 -74 -169 0
-172 74 0
-172 169 0
173 171 172 0
-173 -171 0
-173 -172 0
174 163 -170 0
-174 -163 0
-174 170 0
175 152 -170 0
-175 -152 0
-175 170 0
176 152 163 0
-176 -152 0
-176 -163 0
177 175 176 0
-177 -175 0
-177 -176 0
178 -177 174 0
-178 177 0
-178 -174 0
179 -152 163 0
-179 152 0
-179 -163 0
180 152 -163 0
-180 -152 0
-180 163 0
181 179 180 0
-181 -179 0
-181 -180 0
182 -181 -170 0
-182 181 0
-182 170 0
183 181 170 0
-183 -181 0
-183 -170 0
184 182 183 0
-184 -182 0
-184 -183 0
185 124 184 0
-185 -124 0
-185 -184 0
186 -93 184 0
-186 93 0
-186 -184 0
187 -93 124 0
-187 93 0
-187 -124 0
188 187 186 0
-188 -187 0
-188 -186 0
189 185 -188 0
-189 -185 0
-189 188 0
190 93 124 0
-190 -93 0
-190 -124 0
191 -93 -124 0
-191 93 0
-191 124 0
192 191 190 0
-192 -191 0
-192 -190 0
193 -192 184 0
-193 192 0
-193 -184 0
194 192 -184 0
-194 -192 0
-194 184 0
195 193 194 0
-195 -193 0
-195 -194 0
196 -84 195 0
-196 84 0
-196 -195 0
197 -75 195 0
-197 75 0
-197 -195 0
198 -84 -75 0
-198 84 0
-198 75 0
199 198 197 0
-199 -198 0
-199 -197 0
200 196 -199 0
-200 -196 0
-200 199 0
201 -84 75 0
-201 84 0
-201 -75 0
202 -75 84 0
-202 75 0
-202 -84 0
203 202 201 0
-203 -202 0
-203 -201 0
204 -203 195 0
-204 203 0
-204 -195 0
205 203 -195 0
-205 -203 0
-205 195 0
206 204 205 0
-206 -204 0
-206 -205 0
207 189 200 0
-207 -189 0
-207 -200 0
208 200 178 0
-208 -200 0
-208 -178 0
209 189 178 0
-209 -189 0
-209 -178 0
210 208 209 0
-210 -208 0
-210 -209 0
211 -210 207 0
-211 210 0
-211 -207 0
212 189 -178 0
-212 -189 0
-212 178 0
213 -189 178 0
-213 189 0
-213 -178 0
214 213 212 0
-214 -213 0
-214 -212 0
215 200 -214 0
-215 -200 0
-215 214 0
216 -200 214 0
-216 200 0
-216 -214 0
217 216 215 0
-217 -216 0
-217 -215 0
218 128 217 0
-218 -128 0
-218 -217 0
219 -103 217 0
-219 103 0
-219 -217 0
220 -103 128 0
-220 103 0
-220 -128 0
221 220 219 0
-221 -220 0
-221 -219 0
222 218 -221 0
-222 -218 0
-222 221 0
223 103 128 0
-223 -103 0
-223 -128 0
224 -103 -128 0
-224 103 0
-224 128 0
225 223 224 0
-225 -223 0
-225 -224 0
226 217 -225 0
-226 -217 0
-226 225 0
227 -217 225 0
-227 217 0
-227 -225 0
228 226 227 0
-228 -226 0
-228 -227 0
229 -94 228 0
-229 94 0
-229 -228 0
230 -85 228 0
-230 85 0
-230 -228 0
231 -94 -85 0
-231 94 0
-231 85 0
232 231 230 0
-232 -231 0
-232 -230 0
233 229 -232 0
-233 -229 0
-233 232 0
234 -94 85 0
-234 94 0
-234 -85 0
235 -85 94 0
-235 85 0
-235 -94 0
236 235 234 0
-236 -235 0
-236 -234 0
237 -236 228 0
-237 236 0
-237 -228 0
238 236 -228 0
-238 -236 0
-238 228 0
239 237 238 0
-239 -237 0
-239 -238 0
240 222 233 0
-240 -222 0
-240 -233 0
241 233 211 0
-241 -233 0
-241 -211 0
242 222 211 0
-242 -222 0
-242 -211 0
243 242 241 0
-243 -242 0
-243 -241 0
244 -243 240 0
-244 243 0
-244 -240 0
245 222 -211 0
-245 -222 0
-245 211 0
246 -222 211 0
-246 222 0
-246 -211 0
247 246 245 0
-247 -246 0
-247 -245 0
248 233 -247 0
-248 -233 0
-248 247 0
249 -233 247 0
-249 233 0
-249 -247 0
250 249 248 0
-250 -249 0
-250 -248 0
251 -125 250 0
-251 125 0
-251 -250 0
252 -113 250 0
-252 113 0
-252 -250 0
253 -113 -125 0
-253 113 0
-253 125 0
254 253 252 0
-254 -253 0
-254 -252 0
255 251 -254 0
-255 -251 0
-255 254 0
256 113 -125 0
-256 -113 0
-256 125 0
257 -113 125 0
-257 113 0
-257 -125 0
258 257 256 0
-258 -257 0
-258 -256 0
259 -258 250 0
-259 258 0
-259 -250 0
260 258 -250 0
-260 -258 0
-260 250 0
261 260 259 0
-261 -260 0
-261 -259 0
262 -104 261 0
-262 104 0
-262 -261 0
263 -95 261 0
-263 95 0
-263 -261 0
264 -104 -95 0
-264 104 0
-264 95 0
265 264 263 0
-265 -264 0
-265 -263 0
266 262 -265 0
-266 -262 0
-266 265 0
267 -104 95 0
-267 104 0
-267 -95 0
268 -95 104 0
-268 95 0
-268 -104 0
269 268 267 0
-269 -268 0
-269 -267 0
270 -269 261 0
-270 269 0
-270 -261 0
271 269 -261 0
-271 -269 0
-271 261 0
272 270 271 0
-272 -270 0
-272 -271 0
273 266 255 0
-273 -266 0
-273 -255 0
274 266 244 0
-274 -266 0
-274 -244 0
275 255 244 0
-275 -255 0
-275 -244 0
276 275 274 0
-276 -275 0
-276 -274 0
277 273 -276 0
-277 -273 0
-277 276 0
278 255 -244 0
-278 -255 0
-278 244 0
279 -255 244 0
-279 255 0
-279 -244 0
280 279 278 0
-280 -279 0
-280 -278 0
281 266 -280 0
-281 -266 0
-281 280 0
282 -266 280 0
-282 266 0
-282 -280 0
283 281 282 0
-283 -281 0
-283 -282 0
284 -114 283 0
-284 114 0
-284 -283 0
285 -105 283 0
-285 105 0
-285 -283 0
286 -114 -105 0
-286 114 0
-286 105 0
287 286 285 0
-287 -286 0
-287 -285 0
288 284 -287 0
-288 -284 0
-288 287 0
289 -114 105 0
-289 114 0
-289 -105 0
290 -105 114 0
-290 105 0
-290 -114 0
291 290 289 0
-291 -290 0
-291 -289 0
292 -291 283 0
-292 291 0
-292 -283 0
293 291 -283 0
-293 -291 0
-293 283 0
294 292 293 0
-294 -292 0
-294 -293 0
295 277 288 0
-295 -277 0
-295 -288 0
296 -115 288 0
-296 115 0
-296 -288 0
297 -115 277 0
-297 115 0
-297 -277 0
298 297 296 0
-298 -297 0
-298 -296 0
299 -298 295 0
-299 298 0
-299 -295 0
300 115 277 0
-300 -115 0
-300 -277 0
301 -115 -277 0
-301 115 0
-301 277 0
302 301 300 0
-302 -301 0
-302 -300 0
303 -302 288 0
-303 302 0
-303 -288 0
304 302 -288 0
-304 -302 0
-304 288 0
305 303 304 0
-305 -303 0
-305 -304 0
306 -52 -61 0
-306 52 0
-306 61 0
307 -61 52 0
-307 61 0
-307 -52 0
308 -52 61 0
-308 52 0
-308 -61 0
309 307 308 0
-309 -307 0
-309 -308 0
310 -71 -306 0
-310 71 0
-310 306 0
311 -62 -306 0
-311 62 0
-311 306 0
312 -62 -71 0
-312 62 0
-312 71 0
313 312 311 0
-313 -312 0
-313 -311 0
314 310 -313 0
-314 -310 0
-314 313 0
315 -71 62 0
-315 71 0
-315 -62 0
316 -62 71 0
-316 62 0
-316 -71 0
317 315 316 0
-317 -315 0
-317 -316 0
318 -306 -317 0
-318 306 0
-318 317 0
319 306 317 0
-319 -306 0
-319 -317 0
320 319 318 0
-320 -319 0
-320 -318 0
321 -53 320 0
-321 53 0
-321 -320 0
322 53 320 0
-322 -53 0
-322 -320 0
323 -53 -320 0
-323 53 0
-323 320 0
324 322 323 0
-324 -322 0
-324 -323 0
325 314 -321 0
-325 -314 0
-325 321 0
326 132 -321 0
-326 -132 0
-326 321 0
327 132 314 0
-327 -132 0
-327 -314 0
328 327 326 0
-328 -327 0
-328 -326 0
329 -328 325 0
-329 328 0
-329 -325 0
330 -132 314 0
-330 132 0
-330 -314 0
331 132 -314 0
-331 -132 0
-331 314 0
332 331 330 0
-332 -331 0
-332 -330 0
333 -332 -321 0
-333 332 0
-333 321 0
334 332 321 0
-334 -332 0
-334 -321 0
335 333 334 0
-335 -333 0
-335 -334 0
336 -63 335 0
-336 63 0
-336 -335 0
337 -54 335 0
-337 54 0
-337 -335 0
338 -54 -63 0
-338 54 0
-338 63 0
339 338 337 0
-339 -338 0
-339 -337 0
340 336 -339 0
-340 -336 0
-340 339 0
341 -63 54 0
-341 63 0
-341 -54 0
342 -54 63 0
-342 54 0
-342 -63 0
343 341 342 0
-343 -341 0
-343 -342 0
344 -343 335 0
-344 343 0
-344 -335 0
345 343 -335 0
-345 -343 0
-345 335 0
346 345 344 0
-346 -345 0
-346 -344 0
347 329 340 0
-347 -329 0
-347 -340 0
348 147 340 0
-348 -147 0
-348 -340 0
349 147 329 0
-349 -147 0
-349 -329 0
350 348 349 0
-350 -348 0
-350 -349 0
351 -350 347 0
-351 350 0
-351 -347 0
352 -147 329 0
-352 147 0
-352 -329 0
353 147 -329 0
-353 -147 0
-353 329 0
354 352 353 0
-354 -352 0
-354 -353 0
355 -354 340 0
-355 354 0
-355 -340 0
356 354 -340 0
-356 -354 0
-356 340 0
357 355 356 0
-357 -355 0
-357 -356 0
358 -64 357 0
-358 64 0
-358 -357 0
359 -55 357 0
-359 55 0
-359 -357 0
360 -64 -55 0
-360 64 0
-360 55 0
361 360 359 0
-361 -360 0
-361 -359 0
362 358 -361 0
-362 -358 0
-362 361 0
363 -64 55 0
-363 64 0
-363 -55 0
364 -55 64 0
-364 55 0
-364 -64 0
365 364 363 0
-365 -364 0
-365 -363 0
366 -365 357 0
-366 365 0
-366 -357 0
367 365 -357 0
-367 -365 0
-367 357 0
368 366 367 0
-368 -366 0
-368 -367 0
369 351 362 0
-369 -351 0
-369 -362 0
370 173 362 0
-370 -173 0
-370 -362 0
371 351 173 0
-371 -351 0
-371 -173 0
372 370 371 0
-372 -370 0
-372 -371 0
373 -372 369 0
-373 372 0
-373 -369 0
374 351 -173 0
-374 -351 0
-374 173 0
375 -351 173 0
-375 351 0
-375 -173 0
376 375 374 0
-376 -375 0
-376 -374 0
377 -376 362 0
-377 376 0
-377 -362 0
378 376 -362 0
-378 -376 0
-378 362 0
379 378 377 0
-379 -378 0
-379 -377 0
380 -65 379 0
-380 65 0
-380 -379 0
381 -56 379 0
-381 56 0
-381 -379 0
382 -56 -65 0
-382 56 0
-382 65 0
383 382 381 0
-383 -382 0
-383 -381 0
384 380 -383 0
-384 -380 0
-384 383 0
385 -65 56 0
-385 65 0
-385 -56 0
386 -56 65 0
-386 56 0
-386 -65 0
387 386 385 0
-387 -386 0
-387 -385 0
388 -387 379 0
-388 387 0
-388 -379 0
389 387 -379 0
-389 -387 0
-389 379 0
390 389 388 0
-390 -389 0
-390 -388 0
391 373 384 0
-391 -373 0
-391 -384 0
392 384 206 0
-392 -384 0
-392 -206 0
393 373 206 0
-393 -373 0
-393 -206 0
394 392 393 0
-394 -392 0
-394 -393 0
395 391 -394 0
-395 -391 0
-395 394 0
396 373 -206 0
-396 -373 0
-396 206 0
397 -373 206 0
-397 373 0
-397 -206 0
398 396 397 0
-398 -396 0
-398 -397 0
399 384 -398 0
-399 -384 0
-399 398 0
400 -384 398 0
-400 384 0
-400 -398 0
401 399 400 0
-401 -399 0
-401 -400 0
402 -66 401 0
-402 66 0
-402 -401 0
403 -57 401 0
-403 57 0
-403 -401 0
404 -66 -57 0
-404 66 0
-404 57 0
405 404 403 0
-405 -404 0
-405 -403 0
406 402 -405 0
-406 -402 0
-406 405 0
407 -66 57 0
-407 66 0
-407 -57 0
408 -57 66 0
-408 57 0
-408 -66 0
409 407 408 0
-409 -407 0
-409 -408 0
410 -409 401 0
-410 409 0
-410 -401 0
411 409 -401 0
-411 -409 0
-411 401 0
412 410 411 0
-412 -410 0
-412 -411 0
413 406 395 0
-413 -406 0
-413 -395 0
414 406 239 0
-414 -406 0
-414 -239 0
415 239 395 0
-415 -239 0
-415 -395 0
416 414 415 0
-416 -414 0
-416 -415 0
417 413 -416 0
-417 -413 0
-417 416 0
418 -239 395 0
-418 239 0
-418 -395 0
419 239 -395 0
-419 -239 0
-419 395 0
420 419 418 0
-420 -419 0
-420 -418 0
421 -420 406 0
-421 420 0
-421 -406 0
422 420 -406 0
-422 -420 0
-422 406 0
423 421 422 0
-423 -421 0
-423 -422 0
424 -76 423 0
-424 76 0
-424 -423 0
425 -67 423 0
-425 67 0
-425 -423 0
426 -76 -67 0
-426 76 0
-426 67 0
427 426 425 0
-427 -426 0
-427 -425 0
428 424 -427 0
-428 -424 0
-428 427 0
429 -76 67 0
-429 76 0
-429 -67 0
430 -67 76 0
-430 67 0
-430 -76 0
431 429 430 0
-431 -429 0
-431 -430 0
432 -431 423 0
-432 431 0
-432 -423 0
433 431 -423 0
-433 -431 0
-433 423 0
434 432 433 0
-434 -432 0
-434 -433 0
435 417 428 0
-435 -417 0
-435 -428 0
436 272 428 0
-436 -272 0
-436 -428 0
437 417 272 0
-437 -417 0
-437 -272 0
438 436 437 0
-438 -436 0
-438 -437 0
439 435 -438 0
-439 -435 0
-439 438 0
440 417 -272 0
-440 -417 0
-440 272 0
441 -417 272 0
-441 417 0
-441 -272 0
442 440 441 0
-442 -440 0
-442 -441 0
443 -442 428 0
-443 442 0
-443 -428 0
444 442 -428 0
-444 -442 0
-444 428 0
445 443 444 0
-445 -443 0
-445 -444 0
446 -86 445 0
-446 86 0
-446 -445 0
447 -77 445 0
-447 77 0
-447 -445 0
448 -86 -77 0
-448 86 0
-448 77 0
449 448 447 0
-449 -448 0
-449 -447 0
450 446 -449 0
-450 -446 0
-450 449 0
451 -86 77 0
-451 86 0
-451 -77 0
452 -77 86 0
-452 77 0
-452 -86 0
453 451 452 0
-453 -451 0
-453 -452 0
454 -453 445 0
-454 453 0
-454 -445 0
455 453 -445 0
-455 -453 0
-455 445 0
456 455 454 0
-456 -455 0
-456 -454 0
457 439 450 0
-457 -439 0
-457 -450 0
458 294 450 0
-458 -294 0
-458 -450 0
459 294 439 0
-459 -294 0
-459 -439 0
460 459 458 0
-460 -459 0
-460 -458 0
461 -460 457 0
-461 460 0
-461 -457 0
462 -294 439 0
-462 294 0
-462 -439 0
463 294 -439 0
-463 -294 0
-463 439 0
464 463 462 0
-464 -463 0
-464 -462 0
465 -464 450 0
-465 464 0
-465 -450 0
466 464 -450 0
-466 -464 0
-466 450 0
467 466 465 0
-467 -466 0
-467 -465 0
468 -96 467 0
-468 96 0
-468 -467 0
469 -87 467 0
-469 87 0
-469 -467 0
470 -96 -87 0
-470 96 0
-470 87 0
471 470 469 0
-471 -470 0
-471 -469 0
472 468 -471 0
-472 -468 0
-472 471 0
473 -96 87 0
-473 96 0
-473 -87 0
474 -87 96 0
-474 87 0
-474 -96 0
475 473 474 0
-475 -473 0
-475 -474 0
476 -475 467 0
-476 475 0
-476 -467 0
477 475 -467 0
-477 -475 0
-477 467 0
478 476 477 0
-478 -476 0
-478 -477 0
479 472 461 0
-479 -472 0
-479 -461 0
480 472 305 0
-480 -472 0
-480 -305 0
481 305 461 0
-481 -305 0
-481 -461 0
482 480 481 0
-482 -480 0
-482 -481 0
483 479 -482 0
-483 -479 0
-483 482 0
484 -305 461 0
-484 305 0
-484 -461 0
485 305 -461 0
-485 -305 0
-485 461 0
486 485 484 0
-486 -485 0
-486 -484 0
487 472 -486 0
-487 -472 0
-487 486 0
488 -472 486 0
-488 472 0
-488 -486 0
489 488 487 0
-489 -488 0
-489 -487 0
490 -106 489 0
-490 106 0
-490 -489 0
491 -97 489 0
-491 97 0
-491 -489 0
492 -106 -97 0
-492 106 0
-492 97 0
493 492 491 0
-493 -492 0
-493 -491 0
494 490 -493 0
-494 -490 0
-494 493 0
495 -106 97 0
-495 106 0
-495 -97 0
496 -97 106 0
-496 97 0
-496 -106 0
497 495 496 0
-497 -495 0
-497 -496 0
498 -497 489 0
-498 497 0
-498 -489 0
499 497 -489 0
-499 -497 0
-499 489 0
500 498 499 0
-500 -498 0
-500 -499 0
501 494 483 0
-501 -494 0
-501 -483 0
502 494 299 0
-502 -494 0
-502 -299 0
503 483 299 0
-503 -483 0
-503 -299 0
504 503 502 0
-504 -503 0
-504 -502 0
505 501 -504 0
-505 -501 0
-505 504 0
506 483 -299 0
-506 -483 0
-506 299 0
507 -483 299 0
-507 483 0
-507 -299 0
508 507 506 0
-508 -507 0
-508 -506 0
509 -508 494 0
-509 508 0
-509 -494 0
510 508 -494 0
-510 -508 0
-510 494 0
511 510 509 0
-511 -510 0
-511 -509 0
512 -116 511 0
-512 116 0
-512 -511 0
513 -107 511 0
-513 107 0
-513 -511 0
514 -116 -107 0
-514 116 0
-514 107 0
515 514 513 0
-515 -514 0
-515 -513 0
516 512 -515 0
-516 -512 0
-516 515 0
517 -116 107 0
-517 116 0
-517 -107 0
518 -107 116 0
-518 107 0
-518 -116 0
519 517 518 0
-519 -517 0
-519 -518 0
520 -519 511 0
-520 519 0
-520 -511 0
521 519 -511 0
-521 -519 0
-521 511 0
522 521 520 0
-522 -521 0
-522 -520 0
523 516 505 0
-523 -516 0
-523 -505 0
524 -117 516 0
-524 117 0
-524 -516 0
525 -117 505 0
-525 117 0
-525 -505 0
526 524 525 0
-526 -524 0
-526 -525 0
527 -526 523 0
-527 526 0
-527 -523 0
528 117 505 0
-528 -117 0
-528 -505 0
529 -117 -505 0
-529 117 0
-529 505 0
530 529 528 0
-530 -529 0
-530 -528 0
531 -530 516 0
-531 530 0
-531 -516 0
532 530 -516 0
-532 -530 0
-532 516 0
533 532 531 0
-533 -532 0
-533 -531 0
534 -42 -51 0
-534 42 0
-534 51 0
535 -51 42 0
-535 51 0
-535 -42 0
536 -42 51 0
-536 42 0
-536 -51 0
537 535 536 0
-537 -535 0
-537 -536 0
538 -534 309 0
-538 534 0
-538 -309 0
539 -43 -534 0
-539 43 0
-539 534 0
540 -43 309 0
-540 43 0
-540 -309 0
541 539 540 0
-541 -539 0
-541 -540 0
542 538 -541 0
-542 -538 0
-542 541 0
543 43 309 0
-543 -43 0
-543 -309 0
544 -43 -309 0
-544 43 0
-544 309 0
545 544 543 0
-545 -544 0
-545 -543 0
546 -534 -545 0
-546 534 0
-546 545 0
547 534 545 0
-547 -534 0
-547 -545 0
548 546 547 0
-548 -546 0
-548 -547 0
549 542 324 0
-549 -542 0
-549 -324 0
550 -44 542 0
-550 44 0
-550 -542 0
551 -44 324 0
-551 44 0
-551 -324 0
552 550 551 0
-552 -550 0
-552 -551 0
553 549 -552 0
-553 -549 0
-553 552 0
554 44 324 0
-554 -44 0
-554 -324 0
555 -44 -324 0
-555 44 0
-555 324 0
556 554 555 0
-556 -554 0
-556 -555 0
557 542 -556 0
-557 -542 0
-557 556 0
558 -542 556 0
-558 542 0
-558 -556 0
559 557 558 0
-559 -557 0
-559 -558 0
560 346 553 0
-560 -346 0
-560 -553 0
561 -45 553 0
-561 45 0
-561 -553 0
562 -45 346 0
-562 45 0
-562 -346 0
563 562 561 0
-563 -562 0
-563 -561 0
564 560 -563 0
-564 -560 0
-564 563 0
565 45 346 0
-565 -45 0
-565 -346 0
566 -45 -346 0
-566 45 0
-566 346 0
567 566 565 0
-567 -566 0
-567 -565 0
568 553 -567 0
-568 -553 0
-568 567 0
569 -553 567 0
-569 553 0
-569 -567 0
570 568 569 0
-570 -568 0
-570 -569 0
571 564 368 0
-571 -564 0
-571 -368 0
572 -46 564 0
-572 46 0
-572 -564 0
573 -46 368 0
-573 46 0
-573 -368 0
574 572 573 0
-574 -572 0
-574 -573 0
575 -574 571 0
-575 574 0
-575 -571 0
576 46 368 0
-576 -46 0
-576 -368 0
577 -46 -368 0
-577 46 0
-577 368 0
578 576 577 0
-578 -576 0
-578 -577 0
579 564 -578 0
-579 -564 0
-579 578 0
580 -564 578 0
-580 564 0
-580 -578 0
581 580 579 0
-581 -580 0
-581 -579 0
582 575 390 0
-582 -575 0
-582 -390 0
583 -47 575 0
-583 47 0
-583 -575 0
584 -47 390 0
-584 47 0
-584 -390 0
585 583 584 0
-585 -583 0
-585 -584 0
586 582 -585 0
-586 -582 0
-586 585 0
587 47 390 0
-587 -47 0
-587 -390 0
588 -47 -390 0
-588 47 0
-588 390 0
589 587 588 0
-589 -587 0
-589 -588 0
590 575 -589 0
-590 -575 0
-590 589 0
591 -575 589 0
-591 575 0
-591 -589 0
592 591 590 0
-592 -591 0
-592 -590 0
593 586 412 0
-593 -586 0
-593 -412 0
594 -48 586 0
-594 48 0
-594 -586 0
595 -48 412 0
-595 48 0
-595 -412 0
596 594 595 0
-596 -594 0
-596 -595 0
597 -596 593 0
-597 596 0
-597 -593 0
598 48 412 0
-598 -48 0
-598 -412 0
599 -48 -412 0
-599 48 0
-599 412 0
600 599 598 0
-600 -599 0
-600 -598 0
601 586 -600 0
-601 -586 0
-601 600 0
602 -586 600 0
-602 586 0
-602 -600 0
603 602 601 0
-603 -602 0
-603 -601 0
604 434 597 0
-604 -434 0
-604 -597 0
605 -58 597 0
-605 58 0
-605 -597 0
606 -58 434 0
-606 58 0
-606 -434 0
607 606 605 0
-607 -606 0
-607 -605 0
608 604 -607 0
-608 -604 0
-608 607 0
609 58 434 0
-609 -58 0
-609 -434 0
610 -58 -434 0
-610 58 0
-610 434 0
611 609 610 0
-611 -609 0
-611 -610 0
612 597 -611 0
-612 -597 0
-612 611 0
613 -597 611 0
-613 597 0
-613 -611 0
614 612 613 0
-614 -612 0
-614 -613 0
615 608 456 0
-615 -608 0
-615 -456 0
616 -68 608 0
-616 68 0
-616 -608 0
617 -68 456 0
-617 68 0
-617 -456 0
618 616 617 0
-618 -616 0
-618 -617 0
619 -618 615 0
-619 618 0
-619 -615 0
620 68 456 0
-620 -68 0
-620 -456 0
621 -68 -456 0
-621 68 0
-621 456 0
622 621 620 0
-622 -621 0
-622 -620 0
623 608 -622 0
-623 -608 0
-623 622 0
624 -608 622 0
-624 608 0
-624 -622 0
625 623 624 0
-625 -623 0
-625 -624 0
626 478 619 0
-626 -478 0
-626 -619 0
627 -78 619 0
-627 78 0
-627 -619 0
628 -78 478 0
-628 78 0
-628 -478 0
629 628 627 0
-629 -628 0
-629 -627 0
630 -629 626 0
-630 629 0
-630 -626 0
631 78 478 0
-631 -78 0
-631 -478 0
632 -78 -478 0
-632 78 0
-632 478 0
633 632 631 0
-633 -632 0
-633 -631 0
634 -633 619 0
-634 633 0
-634 -619 0
635 633 -619 0
-635 -633 0
-635 619 0
636 634 635 0
-636 -634 0
-636 -635 0
637 500 630 0
-637 -500 0
-637 -630 0
638 -88 630 0
-638 88 0
-638 -630 0
639 -88 500 0
-639 88 0
-639 -500 0
640 639 638 0
-640 -639 0
-640 -638 0
641 637 -640 0
-641 -637 0
-641 640 0
642 88 500 0
-642 -88 0
-642 -500 0
643 -88 -500 0
-643 88 0
-643 500 0
644 642 643 0
-644 -642 0
-644 -643 0
645 -644 630 0
-645 644 0
-645 -630 0
646 644 -630 0
-646 -644 0
-646 630 0
647 646 645 0
-647 -646 0
-647 -645 0
648 641 522 0
-648 -641 0
-648 -522 0
649 -98 641 0
-649 98 0
-649 -641 0
650 -98 522 0
-650 98 0
-650 -522 0
651 649 650 0
-651 -649 0
-651 -650 0
652 -651 648 0
-652 651 0
-652 -648 0
653 98 522 0
-653 -98 0
-653 -522 0
654 -98 -522 0
-654 98 0
-654 522 0
655 653 654 0
-655 -653 0
-655 -654 0
656 641 -655 0
-656 -641 0
-656 655 0
657 -641 655 0
-657 641 0
-657 -655 0
658 657 656 0
-658 -657 0
-658 -656 0
659 533 652 0
-659 -533 0
-659 -652 0
660 -108 652 0
-660 108 0
-660 -652 0
661 -108 533 0
-661 108 0
-661 -533 0
662 661 660 0
-662 -661 0
-662 -660 0
663 -662 659 0
-663 662 0
-663 -659 0
664 108 533 0
-664 -108 0
-664 -533 0
665 -108 -533 0
-665 108 0
-665 533 0
666 664 665 0
-666 -664 0
-666 -665 0
667 652 -666 0
-667 -652 0
-667 666 0
668 -652 666 0
-668 652 0
-668 -666 0
669 668 667 0
-669 -668 0
-669 -667 0
670 663 527 0
-670 -663 0
-670 -527 0
671 -118 663 0
-671 118 0
-671 -663 0
672 -118 527 0
-672 118 0
-672 -527 0
673 671 672 0
-673 -671 0
-673 -672 0
674 670 -673 0
-674 -670 0
-674 673 0
675 118 527 0
-675 -118 0
-675 -527 0
676 -118 -527 0
-676 118 0
-676 527 0
677 675 676 0
-677 -675 0
-677 -676 0
678 -677 663 0
-678 677 0
-678 -663 0
679 677 -663 0
-679 -677 0
-679 663 0
680 678 679 0
-680 -678 0
-680 -679 0
681 -32 -41 0
-681 32 0
-681 41 0
682 -41 32 0
-682 41 0
-682 -32 0
683 -32 41 0
-683 32 0
-683 -41 0
684 682 683 0
-684 -682 0
-684 -683 0
685 -681 537 0
-685 681 0
-685 -537 0
686 -33 -681 0
-686 33 0
-686 681 0
687 -33 537 0
-687 33 0
-687 -537 0
688 686 687 0
-688 -686 0
-688 -687 0
689 685 -688 0
-689 -685 0
-689 688 0
690 33 537 0
-690 -33 0
-690 -537 0
691 -33 -537 0
-691 33 0
-691 537 0
692 691 690 0
-692 -691 0
-692 -690 0
693 -681 -692 0
-693 681 0
-693 692 0
694 681 692 0
-694 -681 0
-694 -692 0
695 693 694 0
-695 -693 0
-695 -694 0
696 689 548 0
-696 -689 0
-696 -548 0
697 -34 689 0
-697 34 0
-697 -689 0
698 -34 548 0
-698 34 0
-698 -548 0
699 697 698 0
-699 -697 0
-699 -698 0
700 696 -699 0
-700 -696 0
-700 699 0
701 34 548 0
-701 -34 0
-701 -548 0
702 -34 -548 0
-702 34 0
-702 548 0
703 702 701 0
-703 -702 0
-703 -701 0
704 689 -703 0
-704 -689 0
-704 703 0
705 -689 703 0
-705 689 0
-705 -703 0
706 704 705 0
-706 -704 0
-706 -705 0
707 700 559 0
-707 -700 0
-707 -559 0
708 -35 700 0
-708 35 0
-708 -700 0
709 -35 559 0
-709 35 0
-709 -559 0
710 708 709 0
-710 -708 0
-710 -709 0
711 -710 707 0
-711 710 0
-711 -707 0
712 35 559 0
-712 -35 0
-712 -559 0
713 -35 -559 0
-713 35 0
-713 559 0
714 713 712 0
-714 -713 0
-714 -712 0
715 700 -714 0
-715 -700 0
-715 714 0
716 -700 714 0
-716 700 0
-716 -714 0
717 716 715 0
-717 -716 0
-717 -715 0
718 711 570 0
-718 -711 0
-718 -570 0
719 -36 711 0
-719 36 0
-719 -711 0
720 -36 570 0
-720 36 0
-720 -570 0
721 719 720 0
-721 -719 0
-721 -720 0
722 -721 718 0
-722 721 0
-722 -718 0
723 36 570 0
-723 -36 0
-723 -570 0
724 -36 -570 0
-724 36 0
-724 570 0
725 724 723 0
-725 -724 0
-725 -723 0
726 -725 711 0
-726 725 0
-726 -711 0
727 725 -711 0
-727 -725 0
-727 711 0
728 727 726 0
-728 -727 0
-728 -726 0
729 581 722 0
-729 -581 0
-729 -722 0
730 -37 722 0
-730 37 0
-730 -722 0
731 -37 581 0
-731 37 0
-731 -581 0
732 731 730 0
-732 -731 0
-732 -730 0
733 -732 729 0
-733 732 0
-733 -729 0
734 37 581 0
-734 -37 0
-734 -581 0
735 -37 -581 0
-735 37 0
-735 581 0
736 734 735 0
-736 -734 0
-736 -735 0
737 -736 722 0
-737 736 0
-737 -722 0
738 736 -722 0
-738 -736 0
-738 722 0
739 737 738 0
-739 -737 0
-739 -738 0
740 592 733 0
-740 -592 0
-740 -733 0
741 -38 733 0
-741 38 0
-741 -733 0
742 -38 592 0
-742 38 0
-742 -592 0
743 742 741 0
-743 -742 0
-743 -741 0
744 -743 740 0
-744 743 0
-744 -740 0
745 38 592 0
-745 -38 0
-745 -592 0
746 -38 -592 0
-746 38 0
-746 592 0
747 746 745 0
-747 -746 0
-747 -745 0
748 -747 733 0
-748 747 0
-748 -733 0
749 747 -733 0
-749 -747 0
-749 733 0
750 749 748 0
-750 -749 0
-750 -748 0
751 603 744 0
-751 -603 0
-751 -744 0
752 -39 744 0
-752 39 0
-752 -744 0
753 -39 603 0
-753 39 0
-753 -603 0
754 753 752 0
-754 -753 0
-754 -752 0
755 751 -754 0
-755 -751 0
-755 754 0
756 39 603 0
-756 -39 0
-756 -603 0
757 -39 -603 0
-757 39 0
-757 603 0
758 757 756 0
-758 -757 0
-758 -756 0
759 744 -758 0
-759 -744 0
-759 758 0
760 -744 758 0
-760 744 0
-760 -758 0
761 759 760 0
-761 -759 0
-761 -760 0
762 614 755 0
-762 -614 0
-762 -755 0
763 -49 755 0
-763 49 0
-763 -755 0
764 -49 614 0
-764 49 0
-764 -614 0
765 764 763 0
-765 -764 0
-765 -763 0
766 -765 762 0
-766 765 0
-766 -762 0
767 49 614 0
-767 -49 0
-767 -614 0
768 -49 -614 0
-768 49 0
-768 614 0
769 767 768 0
-769 -767 0
-769 -768 0
770 755 -769 0
-770 -755 0
-770 769 0
771 -755 769 0
-771 755 0
-771 -769 0
772 771 770 0
-772 -771 0
-772 -770 0
773 625 766 0
-773 -625 0
-773 -766 0
774 -59 766 0
-774 59 0
-774 -766 0
775 -59 625 0
-775 59 0
-775 -625 0
776 775 774 0
-776 -775 0
-776 -774 0
777 773 -776 0
-777 -773 0
-777 776 0
778 59 625 0
-778 -59 0
-778 -625 0
779 -59 -625 0
-779 59 0
-779 625 0
780 778 779 0
-780 -778 0
-780 -779 0
781 766 -780 0
-781 -766 0
-781 780 0
782 -766 780 0
-782 766 0
-782 -780 0
783 781 782 0
-783 -781 0
-783 -782 0
784 636 777 0
-784 -636 0
-784 -777 0
785 -69 777 0
-785 69 0
-785 -777 0
786 -69 636 0
-786 69 0
-786 -636 0
787 786 785 0
-787 -786 0
-787 -785 0
788 -787 784 0
-788 787 0
-788 -784 0
789 69 636 0
-789 -69 0
-789 -636 0
790 -69 -636 0
-790 69 0
-790 636 0
791 790 789 0
-791 -790 0
-791 -789 0
792 777 -791 0
-792 -777 0
-792 791 0
793 -777 791 0
-793 777 0
-793 -791 0
794 793 792 0
-794 -793 0
-794 -792 0
795 647 788 0
-795 -647 0
-795 -788 0
796 -79 788 0
-796 79 0
-796 -788 0
797 -79 647 0
-797 79 0
-797 -647 0
798 797 796 0
-798 -797 0
-798 -796 0
799 795 -798 0
-799 -795 0
-799 798 0
800 79 647 0
-800 -79 0
-800 -647 0
801 -79 -647 0
-801 79 0
-801 647 0
802 801 800 0
-802 -801 0
-802 -800 0
803 -802 788 0
-803 802 0
-803 -788 0
804 802 -788 0
-804 -802 0
-804 788 0
805 803 804 0
-805 -803 0
-805 -804 0
806 799 658 0
-806 -799 0
-806 -658 0
807 -89 799 0
-807 89 0
-807 -799 0
808 -89 658 0
-808 89 0
-808 -658 0
809 807 808 0
-809 -807 0
-809 -808 0
810 -809 806 0
-810 809 0
-810 -806 0
811 89 658 0
-811 -89 0
-811 -658 0
812 -89 -658 0
-812 89 0
-812 658 0
813 812 811 0
-813 -812 0
-813 -811 0
814 -813 799 0
-814 813 0
-814 -799 0
815 813 -799 0
-815 -813 0
-815 799 0
816 815 814 0
-816 -815 0
-816 -814 0
817 810 669 0
-817 -810 0
-817 -669 0
818 -99 810 0
-818 99 0
-818 -810 0
819 -99 669 0
-819 99 0
-819 -669 0
820 818 819 0
-820 -818 0
-820 -819 0
821 817 -820 0
-821 -817 0
-821 820 0
822 99 669 0
-822 -99 0
-822 -669 0
823 -99 -669 0
-823 99 0
-823 669 0
824 823 822 0
-824 -823 0
-824 -822 0
825 810 -824 0
-825 -810 0
-825 824 0
826 -810 824 0
-826 810 0
-826 -824 0
827 826 825 0
-827 -826 0
-827 -825 0
828 680 821 0
-828 -680 0
-828 -821 0
829 -109 821 0
-829 109 0
-829 -821 0
830 -109 680 0
-830 109 0
-830 -680 0
831 830 829 0
-831 -830 0
-831 -829 0
832 828 -831 0
-832 -828 0
-832 831 0
833 109 680 0
-833 -109 0
-833 -680 0
834 -109 -680 0
-834 109 0
-834 680 0
835 833 834 0
-835 -833 0
-835 -834 0
836 821 -835 0
-836 -821 0
-836 835 0
837 -821 835 0
-837 821 0
-837 -835 0
838 837 836 0
-838 -837 0
-838 -836 0
839 832 674 0
-839 -832 0
-839 -674 0
840 -119 832 0
-840 119 0
-840 -832 0
841 -119 674 0
-841 119 0
-841 -674 0
842 840 841 0
-842 -840 0
-842 -841 0
843 839 -842 0
-843 -839 0
-843 842 0
844 119 674 0
-844 -119 0
-844 -674 0
845 -119 -674 0
-845 119 0
-845 674 0
846 844 845 0
-846 -844 0
-846 -845 0
847 -846 832 0
-847 846 0
-847 -832 0
848 846 -832 0
-848 -846 0
-848 832 0
849 848 847 0
-849 -848 0
-849 -847 0
850 -22 31 0
-850 22 0
-850 -31 0
851 -31 22 0
-851 31 0
-851 -22 0
852 851 850 0
-852 -851 0
-852 -850 0
853 -22 -31 0
-853 22 0
-853 31 0
854 -23 -684 0
-854 23 0
-854 684 0
855 23 684 0
-855 -23 0
-855 -684 0
856 854 855 0
-856 -854 0
-856 -855 0
857 -853 -856 0
-857 853 0
-857 856 0
858 853 856 0
-858 -853 0
-858 -856 0
859 857 858 0
-859 -857 0
-859 -858 0
860 -23 -853 0
-860 23 0
-860 853 0
861 -853 684 0
-861 853 0
-861 -684 0
862 -23 684 0
-862 23 0
-862 -684 0
863 862 861 0
-863 -862 0
-863 -861 0
864 860 -863 0
-864 -860 0
-864 863 0
865 -24 -695 0
-865 24 0
-865 695 0
866 24 695 0
-866 -24 0
-866 -695 0
867 865 866 0
-867 -865 0
-867 -866 0
868 864 -867 0
-868 -864 0
-868 867 0
869 -864 867 0
-869 864 0
-869 -867 0
870 869 868 0
-870 -869 0
-870 -868 0
871 -24 864 0
-871 24 0
-871 -864 0
872 864 695 0
-872 -864 0
-872 -695 0
873 -24 695 0
-873 24 0
-873 -695 0
874 872 873 0
-874 -872 0
-874 -873 0
875 871 -874 0
-875 -871 0
-875 874 0
876 -25 -706 0
-876 25 0
-876 706 0
877 25 706 0
-877 -25 0
-877 -706 0
878 876 877 0
-878 -876 0
-878 -877 0
879 -878 875 0
-879 878 0
-879 -875 0
880 878 -875 0
-880 -878 0
-880 875 0
881 880 879 0
-881 -880 0
-881 -879 0
882 -25 875 0
-882 25 0
-882 -875 0
883 875 706 0
-883 -875 0
-883 -706 0
884 -25 706 0
-884 25 0
-884 -706 0
885 883 884 0
-885 -883 0
-885 -884 0
886 -885 882 0
-886 885 0
-886 -882 0
887 -26 -717 0
-887 26 0
-887 717 0
888 26 717 0
-888 -26 0
-888 -717 0
889 887 888 0
-889 -887 0
-889 -888 0
890 886 -889 0
-890 -886 0
-890 889 0
891 -886 889 0
-891 886 0
-891 -889 0
892 891 890 0
-892 -891 0
-892 -890 0
893 -26 886 0
-893 26 0
-893 -886 0
894 886 717 0
-894 -886 0
-894 -717 0
895 -26 717 0
-895 26 0
-895 -717 0
896 894 895 0
-896 -894 0
-896 -895 0
897 893 -896 0
-897 -893 0
-897 896 0
898 -27 -728 0
-898 27 0
-898 728 0
899 27 728 0
-899 -27 0
-899 -728 0
900 898 899 0
-900 -898 0
-900 -899 0
901 -900 897 0
-901 900 0
-901 -897 0
902 900 -897 0
-902 -900 0
-902 897 0
903 901 902 0
-903 -901 0
-903 -902 0
904 -27 897 0
-904 27 0
-904 -897 0
905 728 897 0
-905 -728 0
-905 -897 0
906 -27 728 0
-906 27 0
-906 -728 0
907 906 905 0
-907 -906 0
-907 -905 0
908 904 -907 0
-908 -904 0
-908 907 0
909 -28 -739 0
-909 28 0
-909 739 0
910 28 739 0
-910 -28 0
-910 -739 0
911 909 910 0
-911 -909 0
-911 -910 0
912 -911 908 0
-912 911 0
-912 -908 0
913 911 -908 0
-913 -911 0
-913 908 0
914 912 913 0
-914 -912 0
-914 -913 0
915 -28 908 0
-915 28 0
-915 -908 0
916 739 908 0
-916 -739 0
-916 -908 0
917 -28 739 0
-917 28 0
-917 -739 0
918 917 916 0
-918 -917 0
-918 -916 0
919 -918 915 0
-919 918 0
-919 -915 0
920 -29 -750 0
-920 29 0
-920 750 0
921 29 750 0
-921 -29 0
-921 -750 0
922 920 921 0
-922 -920 0
-922 -921 0
923 -922 919 0
-923 922 0
-923 -919 0
924 922 -919 0
-924 -922 0
-924 919 0
925 923 924 0
-925 -923 0
-925 -924 0
926 -29 919 0
-926 29 0
-926 -919 0
927 750 919 0
-927 -750 0
-927 -919 0
928 -29 750 0
-928 29 0
-928 -750 0
929 927 928 0
-929 -927 0
-929 -928 0
930 926 -929 0
-930 -926 0
-930 929 0
931 -30 -761 0
-931 30 0
-931 761 0
932 30 761 0
-932 -30 0
-932 -761 0
933 931 932 0
-933 -931 0
-933 -932 0
934 -933 930 0
-934 933 0
-934 -930 0
935 933 -930 0
-935 -933 0
-935 930 0
936 935 934 0
-936 -935 0
-936 -934 0
937 -30 930 0
-937 30 0
-937 -930 0
938 761 930 0
-938 -761 0
-938 -930 0
939 -30 761 0
-939 30 0
-939 -761 0
940 939 938 0
-940 -939 0
-940 -938 0
941 937 -940 0
-941 -937 0
-941 940 0
942 -40 -772 0
-942 40 0
-942 772 0
943 40 772 0
-943 -40 0
-943 -772 0
944 942 943 0
-944 -942 0
-944 -943 0
945 941 -944 0
-945 -941 0
-945 944 0
946 -941 944 0
-946 941 0
-946 -944 0
947 945 946 0
-947 -945 0
-947 -946 0
948 -40 941 0
-948 40 0
-948 -941 0
949 772 941 0
-949 -772 0
-949 -941 0
950 -40 772 0
-950 40 0
-950 -772 0
951 950 949 0
-951 -950 0
-951 -949 0
952 948 -951 0
-952 -948 0
-952 951 0
953 -50 -783 0
-953 50 0
-953 783 0
954 50 783 0
-954 -50 0
-954 -783 0
955 954 953 0
-955 -954 0
-955 -953 0
956 952 -955 0
-956 -952 0
-956 955 0
957 -952 955 0
-957 952 0
-957 -955 0
958 957 956 0
-958 -957 0
-958 -956 0
959 -50 952 0
-959 50 0
-959 -952 0
960 952 783 0
-960 -952 0
-960 -783 0
961 -50 783 0
-961 50 0
-961 -783 0
962 960 961 0
-962 -960 0
-962 -961 0
963 -962 959 0
-963 962 0
-963 -959 0
964 -60 -794 0
-964 60 0
-964 794 0
965 60 794 0
-965 -60 0
-965 -794 0
966 964 965 0
-966 -964 0
-966 -965 0
967 -966 963 0
-967 966 0
-967 -963 0
968 966 -963 0
-968 -966 0
-968 963 0
969 968 967 0
-969 -968 0
-969 -967 0
970 -60 963 0
-970 60 0
-970 -963 0
971 794 963 0
-971 -794 0
-971 -963 0
972 -60 794 0
-972 60 0
-972 -794 0
973 972 971 0
-973 -972 0
-973 -971 0
974 -973 970 0
-974 973 0
-974 -970 0
975 -70 -805 0
-975 70 0
-975 805 0
976 70 805 0
-976 -70 0
-976 -805 0
977 975 976 0
-977 -975 0
-977 -976 0
978 -977 974 0
-978 977 0
-978 -974 0
979 977 -974 0
-979 -977 0
-979 974 0
980 978 979 0
-980 -978 0
-980 -979 0
981 -70 974 0
-981 70 0
-981 -974 0
982 805 974 0
-982 -805 0
-982 -974 0
983 -70 805 0
-983 70 0
-983 -805 0
984 982 983 0
-984 -982 0
-984 -983 0
985 -984 981 0
-985 984 0
-985 -981 0
986 -80 -816 0
-986 80 0
-986 816 0
987 80 816 0
-987 -80 0
-987 -816 0
988 987 986 0
-988 -987 0
-988 -986 0
989 985 -988 0
-989 -985 0
-989 988 0
990 -985 988 0
-990 985 0
-990 -988 0
991 990 989 0
-991 -990 0
-991 -989 0
992 -80 985 0
-992 80 0
-992 -985 0
993 985 816 0
-993 -985 0
-993 -816 0
994 -80 816 0
-994 80 0
-994 -816 0
995 993 994 0
-995 -993 0
-995 -994 0
996 -995 992 0
-996 995 0
-996 -992 0
997 -90 -827 0
-997 90 0
-997 827 0
998 90 827 0
-998 -90 0
-998 -827 0
999 998 997 0
-999 -998 0
-999 -997 0
1000 996 -999 0
-1000 -996 0
-1000 999 0
1001 -996 999 0
-1001 996 0
-1001 -999 0
1002 1000 1001 0
-1002 -1000 0
-1002 -1001 0
1003 -90 996 0
-1003 90 0
-1003 -996 0
1004 827 996 0
-1004 -827 0
-1004 -996 0
1005 -90 827 0
-1005 90 0
-1005 -827 0
1006 1005 1004 0
-1006 -1005 0
-1006 -1004 0
1007 1003 -1006 0
-1007 -1003 0
-1007 1006 0
1008 -100 -838 0
-1008 100 0
-1008 838 0
1009 100 838 0
-1009 -100 0
-1009 -838 0
1010 1009 1008 0
-1010 -1009 0
-1010 -1008 0
1011 1007 -1010 0
-1011 -1007 0
-1011 1010 0
1012 -1007 1010 0
-1012 1007 0
-1012 -1010 0
1013 1012 1011 0
-1013 -1012 0
-1013 -1011 0
1014 -100 1007 0
-1014 100 0
-1014 -1007 0
1015 1007 838 0
-1015 -1007 0
-1015 -838 0
1016 -100 838 0
-1016 100 0
-1016 -838 0
1017 1015 1016 0
-1017 -1015 0
-1017 -1016 0
1018 1014 -1017 0
-1018 -1014 0
-1018 1017 0
1019 -110 -849 0
-1019 110 0
-1019 849 0
1020 110 849 0
-1020 -110 0
-1020 -849 0
1021 1019 1020 0
-1021 -1019 0
-1021 -1020 0
1022 1018 -1021 0
-1022 -1018 0
-1022 1021 0
1023 -1018 1021 0
-1023 1018 0
-1023 -1021 0
1024 1023 1022 0
-1024 -1023 0
-1024 -1022 0
1025 -110 1018 0
-1025 110 0
-1025 -1018 0
1026 1018 849 0
-1026 -1018 0
-1026 -849 0
1027 -110 849 0
-1027 110 0
-1027 -849 0
1028 1026 1027 0
-1028 -1026 0
-1028 -1027 0
1029 -1028 1025 0
-1029 1028 0
-1029 -1025 0
1030 -120 -843 0
-1030 120 0
-1030 843 0
1031 120 843 0
-1031 -120 0
-1031 -843 0
1032 1030 1031 0
-1032 -1030 0
-1032 -1031 0
1033 -1032 1029 0
-1033 1032 0
-1033 -1029 0
1034 1032 -1029 0
-1034 -1032 0
-1034 1029 0
1035 1034 1033 0
-1035 -1034 0
-1035 -1033 0
1036 -120 1029 0
-1036 120 0
-1036 -1029 0
1037 1029 843 0
-1037 -1029 0
-1037 -843 0
1038 -120 843 0
-1038 120 0
-1038 -843 0
1039 1038 1037 0
-1039 -1038 0
-1039 -1037 0
1040 -1039 1036 0
-1040 1039 0
-1040 -1036 0
-1041 21 0
1041 -21 0
-1042 -852 0
1042 852 0
-1043 -859 0
1043 859 0
-1044 -870 0
1044 870 0
-1045 -881 0
1045 881 0
-1046 -892 0
1046 892 0
-1047 -903 0
1047 903 0
-1048 -914 0
1048 914 0
-1049 -925 0
1049 925 0
-1050 -936 0
1050 936 0
-1051 -947 0
1051 947 0
-1052 -958 0
1052 958 0
-1053 -969 0
1053 969 0
-1054 -980 0
1054 980 0
-1055 -991 0
1055 991 0
-1056 -1002 0
1056 1002 0
-1057 -1013 0
1057 1013 0
-1058 -1024 0
1058 1024 0
-1059 -1035 0
1059 1035 0
-1060 -1040 0
1060 1040 0
-1041 0
-1042 0
1043 0
-1044 0
1045 0
1046 0
1047 0
-1048 0
1049 0
1050 0
1051 0
-1052 0
1053 0
1054 0
-1055 0
-1056 0
1057 0
1058 0
1059 0
-1060 0
